\ Model netflow
\ LP format - for model browsing. Use MPS format to capture full model detail.
Minimize
  - flow[h,a]
Subject To
 cap[a,b]: flow[a,b] <= 15
 cap[a,c]: flow[a,c] <= 5
 cap[a,d]: flow[a,d] <= 10
 cap[d,c]: flow[d,c] <= 4
 cap[c,b]: flow[c,b] <= 4
 cap[d,g]: flow[d,g] <= 9
 cap[d,f]: flow[d,f] <= 15
 cap[c,f]: flow[c,f] <= 8
 cap[b,e]: flow[b,e] <= 30
 cap[e,c]: flow[e,c] <= 6
 cap[g,f]: flow[g,f] <= 15
 cap[f,e]: flow[f,e] <= 15
 cap[g,h]: flow[g,h] <= 10
 cap[f,h]: flow[f,h] <= 10
 cap[e,h]: flow[e,h] <= 10
 cap[h,a]: flow[h,a] <= 1e+100
 cap[a,b]: flow[a,b] <= 15
 cap[a,b]: flow[a,b] <= 15
 cap[a,c]: flow[a,c] <= 5
 cap[a,d]: flow[a,d] <= 10
 cap[d,c]: flow[d,c] <= 4
 cap[c,b]: flow[c,b] <= 4
 cap[d,g]: flow[d,g] <= 9
 cap[d,f]: flow[d,f] <= 15
 cap[c,f]: flow[c,f] <= 8
 cap[b,e]: flow[b,e] <= 30
 cap[e,c]: flow[e,c] <= 6
 cap[g,f]: flow[g,f] <= 15
 cap[f,e]: flow[f,e] <= 15
 cap[g,h]: flow[g,h] <= 10
 cap[f,h]: flow[f,h] <= 10
 cap[e,h]: flow[e,h] <= 10
 cap[h,a]: flow[h,a] <= 1e+100
 cap[a,c]: flow[a,c] <= 5
 cap[a,b]: flow[a,b] <= 15
 cap[a,c]: flow[a,c] <= 5
 cap[a,d]: flow[a,d] <= 10
 cap[d,c]: flow[d,c] <= 4
 cap[c,b]: flow[c,b] <= 4
 cap[d,g]: flow[d,g] <= 9
 cap[d,f]: flow[d,f] <= 15
 cap[c,f]: flow[c,f] <= 8
 cap[b,e]: flow[b,e] <= 30
 cap[e,c]: flow[e,c] <= 6
 cap[g,f]: flow[g,f] <= 15
 cap[f,e]: flow[f,e] <= 15
 cap[g,h]: flow[g,h] <= 10
 cap[f,h]: flow[f,h] <= 10
 cap[e,h]: flow[e,h] <= 10
 cap[h,a]: flow[h,a] <= 1e+100
 cap[a,d]: flow[a,d] <= 10
 cap[a,b]: flow[a,b] <= 15
 cap[a,c]: flow[a,c] <= 5
 cap[a,d]: flow[a,d] <= 10
 cap[d,c]: flow[d,c] <= 4
 cap[c,b]: flow[c,b] <= 4
 cap[d,g]: flow[d,g] <= 9
 cap[d,f]: flow[d,f] <= 15
 cap[c,f]: flow[c,f] <= 8
 cap[b,e]: flow[b,e] <= 30
 cap[e,c]: flow[e,c] <= 6
 cap[g,f]: flow[g,f] <= 15
 cap[f,e]: flow[f,e] <= 15
 cap[g,h]: flow[g,h] <= 10
 cap[f,h]: flow[f,h] <= 10
 cap[e,h]: flow[e,h] <= 10
 cap[h,a]: flow[h,a] <= 1e+100
 cap[d,c]: flow[d,c] <= 4
 cap[a,b]: flow[a,b] <= 15
 cap[a,c]: flow[a,c] <= 5
 cap[a,d]: flow[a,d] <= 10
 cap[d,c]: flow[d,c] <= 4
 cap[c,b]: flow[c,b] <= 4
 cap[d,g]: flow[d,g] <= 9
 cap[d,f]: flow[d,f] <= 15
 cap[c,f]: flow[c,f] <= 8
 cap[b,e]: flow[b,e] <= 30
 cap[e,c]: flow[e,c] <= 6
 cap[g,f]: flow[g,f] <= 15
 cap[f,e]: flow[f,e] <= 15
 cap[g,h]: flow[g,h] <= 10
 cap[f,h]: flow[f,h] <= 10
 cap[e,h]: flow[e,h] <= 10
 cap[h,a]: flow[h,a] <= 1e+100
 cap[c,b]: flow[c,b] <= 4
 cap[a,b]: flow[a,b] <= 15
 cap[a,c]: flow[a,c] <= 5
 cap[a,d]: flow[a,d] <= 10
 cap[d,c]: flow[d,c] <= 4
 cap[c,b]: flow[c,b] <= 4
 cap[d,g]: flow[d,g] <= 9
 cap[d,f]: flow[d,f] <= 15
 cap[c,f]: flow[c,f] <= 8
 cap[b,e]: flow[b,e] <= 30
 cap[e,c]: flow[e,c] <= 6
 cap[g,f]: flow[g,f] <= 15
 cap[f,e]: flow[f,e] <= 15
 cap[g,h]: flow[g,h] <= 10
 cap[f,h]: flow[f,h] <= 10
 cap[e,h]: flow[e,h] <= 10
 cap[h,a]: flow[h,a] <= 1e+100
 cap[d,g]: flow[d,g] <= 9
 cap[a,b]: flow[a,b] <= 15
 cap[a,c]: flow[a,c] <= 5
 cap[a,d]: flow[a,d] <= 10
 cap[d,c]: flow[d,c] <= 4
 cap[c,b]: flow[c,b] <= 4
 cap[d,g]: flow[d,g] <= 9
 cap[d,f]: flow[d,f] <= 15
 cap[c,f]: flow[c,f] <= 8
 cap[b,e]: flow[b,e] <= 30
 cap[e,c]: flow[e,c] <= 6
 cap[g,f]: flow[g,f] <= 15
 cap[f,e]: flow[f,e] <= 15
 cap[g,h]: flow[g,h] <= 10
 cap[f,h]: flow[f,h] <= 10
 cap[e,h]: flow[e,h] <= 10
 cap[h,a]: flow[h,a] <= 1e+100
 cap[d,f]: flow[d,f] <= 15
 cap[a,b]: flow[a,b] <= 15
 cap[a,c]: flow[a,c] <= 5
 cap[a,d]: flow[a,d] <= 10
 cap[d,c]: flow[d,c] <= 4
 cap[c,b]: flow[c,b] <= 4
 cap[d,g]: flow[d,g] <= 9
 cap[d,f]: flow[d,f] <= 15
 cap[c,f]: flow[c,f] <= 8
 cap[b,e]: flow[b,e] <= 30
 cap[e,c]: flow[e,c] <= 6
 cap[g,f]: flow[g,f] <= 15
 cap[f,e]: flow[f,e] <= 15
 cap[g,h]: flow[g,h] <= 10
 cap[f,h]: flow[f,h] <= 10
 cap[e,h]: flow[e,h] <= 10
 cap[h,a]: flow[h,a] <= 1e+100
 cap[c,f]: flow[c,f] <= 8
 cap[a,b]: flow[a,b] <= 15
 cap[a,c]: flow[a,c] <= 5
 cap[a,d]: flow[a,d] <= 10
 cap[d,c]: flow[d,c] <= 4
 cap[c,b]: flow[c,b] <= 4
 cap[d,g]: flow[d,g] <= 9
 cap[d,f]: flow[d,f] <= 15
 cap[c,f]: flow[c,f] <= 8
 cap[b,e]: flow[b,e] <= 30
 cap[e,c]: flow[e,c] <= 6
 cap[g,f]: flow[g,f] <= 15
 cap[f,e]: flow[f,e] <= 15
 cap[g,h]: flow[g,h] <= 10
 cap[f,h]: flow[f,h] <= 10
 cap[e,h]: flow[e,h] <= 10
 cap[h,a]: flow[h,a] <= 1e+100
 cap[b,e]: flow[b,e] <= 30
 cap[a,b]: flow[a,b] <= 15
 cap[a,c]: flow[a,c] <= 5
 cap[a,d]: flow[a,d] <= 10
 cap[d,c]: flow[d,c] <= 4
 cap[c,b]: flow[c,b] <= 4
 cap[d,g]: flow[d,g] <= 9
 cap[d,f]: flow[d,f] <= 15
 cap[c,f]: flow[c,f] <= 8
 cap[b,e]: flow[b,e] <= 30
 cap[e,c]: flow[e,c] <= 6
 cap[g,f]: flow[g,f] <= 15
 cap[f,e]: flow[f,e] <= 15
 cap[g,h]: flow[g,h] <= 10
 cap[f,h]: flow[f,h] <= 10
 cap[e,h]: flow[e,h] <= 10
 cap[h,a]: flow[h,a] <= 1e+100
 cap[e,c]: flow[e,c] <= 6
 cap[a,b]: flow[a,b] <= 15
 cap[a,c]: flow[a,c] <= 5
 cap[a,d]: flow[a,d] <= 10
 cap[d,c]: flow[d,c] <= 4
 cap[c,b]: flow[c,b] <= 4
 cap[d,g]: flow[d,g] <= 9
 cap[d,f]: flow[d,f] <= 15
 cap[c,f]: flow[c,f] <= 8
 cap[b,e]: flow[b,e] <= 30
 cap[e,c]: flow[e,c] <= 6
 cap[g,f]: flow[g,f] <= 15
 cap[f,e]: flow[f,e] <= 15
 cap[g,h]: flow[g,h] <= 10
 cap[f,h]: flow[f,h] <= 10
 cap[e,h]: flow[e,h] <= 10
 cap[h,a]: flow[h,a] <= 1e+100
 cap[g,f]: flow[g,f] <= 15
 cap[a,b]: flow[a,b] <= 15
 cap[a,c]: flow[a,c] <= 5
 cap[a,d]: flow[a,d] <= 10
 cap[d,c]: flow[d,c] <= 4
 cap[c,b]: flow[c,b] <= 4
 cap[d,g]: flow[d,g] <= 9
 cap[d,f]: flow[d,f] <= 15
 cap[c,f]: flow[c,f] <= 8
 cap[b,e]: flow[b,e] <= 30
 cap[e,c]: flow[e,c] <= 6
 cap[g,f]: flow[g,f] <= 15
 cap[f,e]: flow[f,e] <= 15
 cap[g,h]: flow[g,h] <= 10
 cap[f,h]: flow[f,h] <= 10
 cap[e,h]: flow[e,h] <= 10
 cap[h,a]: flow[h,a] <= 1e+100
 cap[f,e]: flow[f,e] <= 15
 cap[a,b]: flow[a,b] <= 15
 cap[a,c]: flow[a,c] <= 5
 cap[a,d]: flow[a,d] <= 10
 cap[d,c]: flow[d,c] <= 4
 cap[c,b]: flow[c,b] <= 4
 cap[d,g]: flow[d,g] <= 9
 cap[d,f]: flow[d,f] <= 15
 cap[c,f]: flow[c,f] <= 8
 cap[b,e]: flow[b,e] <= 30
 cap[e,c]: flow[e,c] <= 6
 cap[g,f]: flow[g,f] <= 15
 cap[f,e]: flow[f,e] <= 15
 cap[g,h]: flow[g,h] <= 10
 cap[f,h]: flow[f,h] <= 10
 cap[e,h]: flow[e,h] <= 10
 cap[h,a]: flow[h,a] <= 1e+100
 cap[g,h]: flow[g,h] <= 10
 cap[a,b]: flow[a,b] <= 15
 cap[a,c]: flow[a,c] <= 5
 cap[a,d]: flow[a,d] <= 10
 cap[d,c]: flow[d,c] <= 4
 cap[c,b]: flow[c,b] <= 4
 cap[d,g]: flow[d,g] <= 9
 cap[d,f]: flow[d,f] <= 15
 cap[c,f]: flow[c,f] <= 8
 cap[b,e]: flow[b,e] <= 30
 cap[e,c]: flow[e,c] <= 6
 cap[g,f]: flow[g,f] <= 15
 cap[f,e]: flow[f,e] <= 15
 cap[g,h]: flow[g,h] <= 10
 cap[f,h]: flow[f,h] <= 10
 cap[e,h]: flow[e,h] <= 10
 cap[h,a]: flow[h,a] <= 1e+100
 cap[f,h]: flow[f,h] <= 10
 cap[a,b]: flow[a,b] <= 15
 cap[a,c]: flow[a,c] <= 5
 cap[a,d]: flow[a,d] <= 10
 cap[d,c]: flow[d,c] <= 4
 cap[c,b]: flow[c,b] <= 4
 cap[d,g]: flow[d,g] <= 9
 cap[d,f]: flow[d,f] <= 15
 cap[c,f]: flow[c,f] <= 8
 cap[b,e]: flow[b,e] <= 30
 cap[e,c]: flow[e,c] <= 6
 cap[g,f]: flow[g,f] <= 15
 cap[f,e]: flow[f,e] <= 15
 cap[g,h]: flow[g,h] <= 10
 cap[f,h]: flow[f,h] <= 10
 cap[e,h]: flow[e,h] <= 10
 cap[h,a]: flow[h,a] <= 1e+100
 cap[e,h]: flow[e,h] <= 10
 cap[a,b]: flow[a,b] <= 15
 cap[a,c]: flow[a,c] <= 5
 cap[a,d]: flow[a,d] <= 10
 cap[d,c]: flow[d,c] <= 4
 cap[c,b]: flow[c,b] <= 4
 cap[d,g]: flow[d,g] <= 9
 cap[d,f]: flow[d,f] <= 15
 cap[c,f]: flow[c,f] <= 8
 cap[b,e]: flow[b,e] <= 30
 cap[e,c]: flow[e,c] <= 6
 cap[g,f]: flow[g,f] <= 15
 cap[f,e]: flow[f,e] <= 15
 cap[g,h]: flow[g,h] <= 10
 cap[f,h]: flow[f,h] <= 10
 cap[e,h]: flow[e,h] <= 10
 cap[h,a]: flow[h,a] <= 1e+100
 cap[h,a]: flow[h,a] <= 1e+100
 node(a): - flow[a,b] - flow[a,c] - flow[a,d] + flow[h,a] = 0
 node(b): flow[a,b] + flow[c,b] - flow[b,e] = 0
 node(c): flow[a,c] + flow[d,c] - flow[c,b] - flow[c,f] + flow[e,c] = 0
 node(d): flow[a,d] - flow[d,c] - flow[d,g] - flow[d,f] = 0
 node(e): flow[b,e] - flow[e,c] + flow[f,e] - flow[e,h] = 0
 node(f): flow[d,f] + flow[c,f] + flow[g,f] - flow[f,e] - flow[f,h] = 0
 node(g): flow[d,g] - flow[g,f] - flow[g,h] = 0
 node(h): flow[g,h] + flow[f,h] + flow[e,h] - flow[h,a] = 0
Bounds
End
